; benchmark generated from python API
(set-info :status unknown)
(declare-datatypes ((IntState 0)) (((Mk1 (val1 Int)) (Mk2 (val2 Int)))))
 (declare-fun c_main_~i~6 () Int)
(declare-fun c_main_~j~6 () Int)
(declare-fun c_main_~k~6 () Int)
(assert
 (let (($x94 (<= c_main_~i~6 3)))
 (let ((?x125 (* 2 c_main_~i~6)))
 (let (($x102 (<= c_main_~j~6 ?x125)))
 (let (($x37 (exists ((v_nnf_96_st IntState) (val!139 Int) )(let ((?x56 (val2 v_nnf_96_st)))
 (let (($x153 (<= ?x56 4)))
 (let (($x109 (and (<= (+ ?x56 2) c_main_~k~6) (<= c_main_~j~6 (+ (* 2 ?x56) 2)) $x153)))
 (let (($x52 (not (= v_nnf_96_st (Mk1 val!139)))))
 (and $x52 $x109))))))
 ))
 (let (($x69 (<= c_main_~j~6 (+ ?x125 2))))
 (let (($x91 (<= c_main_~i~6 4)))
 (let (($x41 (<= c_main_~j~6 (+ ?x125 1))))
 (let (($x179 (exists ((v_nnf_98 Int) )(let (($x49 (<= c_main_~j~6 (+ (* 2 v_nnf_98) 2))))
 (let (($x152 (<= v_nnf_98 4)))
 (and (<= (+ v_nnf_98 3) c_main_~k~6) $x152 $x49))))
 ))
 (and (and $x41 $x91 $x69 $x102 $x94 $x179) (not (and $x41 $x91 $x69 $x37 $x102 $x94))))))))))))
(check-sat)
